(set-logic ALL)
(declare-const a_random97_0 String)
(declare-const a_random97_1 String)
(declare-fun seed0_sigmaStar_0 () String)
(declare-fun seed0_sigmaStar_1 () String)
(declare-fun seed0_sigmaStar_7 () String)
(declare-fun seed0_literal_9 () String)
(declare-fun seed0_x_10 () String)
(declare-fun seed0_epsilon () String)
(declare-fun seed0_literal_8 () String)
(declare-fun seed0_x_11 () String)
(declare-fun seed0_literal_12 () String)
(declare-fun seed0_x_13 () String)
(assert (and (and (= seed0_literal_9 "\u{3c}\u{74}\u{72}\u{3e}\u{3c}\u{74}\u{64}\u{3e}\u{3c}\u{62}\u{3e}") (not (str.suffixof (str.++ seed0_literal_9 seed0_literal_9) (str.++ seed0_x_11 seed0_literal_8)))) (and (= seed0_epsilon "") (not (str.suffixof (str.++ seed0_x_10 seed0_x_13) (str.++ seed0_literal_12 seed0_literal_9)))) (and (= seed0_literal_8 "\u{3c}\u{3c}\u{20}\u{6e}\u{6f}\u{74}\u{69}\u{74}\u{6c}\u{65}\u{20}\u{20}\u{3e}\u{3e}") (not (str.<= (str.++ seed0_literal_9 seed0_x_13) (str.++ seed0_sigmaStar_7 seed0_x_10)))) (and (or (= seed0_x_10 seed0_epsilon) (= seed0_x_10 seed0_literal_8)) (str.prefixof (str.++ seed0_sigmaStar_7 seed0_literal_9) (str.++ seed0_literal_8 seed0_literal_9))) (and (and (str.suffixof seed0_x_11 a_random97_0) (str.prefixof seed0_x_11 a_random97_0) (str.suffixof (str.++ seed0_literal_9 seed0_x_10) a_random97_0) (str.prefixof (str.++ seed0_literal_9 seed0_x_10) a_random97_0)) (str.contains (str.++ seed0_sigmaStar_7 seed0_sigmaStar_0) (str.++ seed0_epsilon seed0_sigmaStar_0))) (and (= seed0_literal_12 "\u{3c}\u{2f}\u{62}\u{3e}\u{3c}\u{2f}\u{74}\u{64}\u{3e}\u{3c}\u{2f}\u{74}\u{72}\u{3e}\u{5c}\u{6e}") (str.< (str.++ seed0_literal_12 seed0_sigmaStar_1) (str.++ seed0_sigmaStar_1 seed0_sigmaStar_1))) (and (and (str.suffixof seed0_x_13 a_random97_1) (str.prefixof seed0_x_13 a_random97_1) (str.suffixof (str.++ seed0_x_11 seed0_literal_12) a_random97_1) (str.prefixof (str.++ seed0_x_11 seed0_literal_12) a_random97_1)) (not (str.prefixof (str.++ seed0_sigmaStar_7 seed0_epsilon) (str.++ seed0_x_13 seed0_epsilon)))) (and (str.in_re seed0_x_13 (re.++ (re.* re.allchar ) (re.++ (str.to_re "\u{5c}\u{3c}\u{53}\u{43}\u{52}\u{49}\u{50}\u{54}") (re.* re.allchar )))) (not (str.contains (str.++ seed0_sigmaStar_7 seed0_sigmaStar_7) (str.++ seed0_literal_12 seed0_x_10))))))
(check-sat)
(exit)